letting n =  10
letting blocks =  [[1, 4], [1, 5], [1, 6], [2, 5], [2, 8], [2, 10], [3, 7], [3, 10], [4, 3], [5, 8], [5, 9], [6, 1], [6, 5], [6, 8], [6, 10], [7, 1], [7, 3], [7, 7], [7, 8], [8, 1], [8, 4], [8, 5], [8, 8], [9, 2], [9, 6], [9, 10], [10, 3], [10, 6]]
